(declare-const x0 Real)
(assert (<= 0.000050 x0))
(declare-const x1 Real)
(assert (<= 10.0 x1))
(declare-const x2 Real)
(assert (<= 0.000050 x2))
(declare-const x3 Real)
(assert (<= 0.000050 x3))
(declare-const x4 Real)
(assert (<= 0.000050 x4))
(declare-const x5 Real)
(assert (<= 0.000050 x5))
(declare-const x6 Real)
(assert (<= 0.000050 x6))
(declare-const x7 Real)
(assert (<= 0.000050 x7))
(declare-const x8 Real)
(assert (<= 0.0 x8))
(declare-const x9 Real)
(assert (<= 0.0 x9))

(assert (<= 0.0 (+ (* 1.0 x8) (- (/ 0.750000 (* x0 x1))))))
(assert (<= 0.0 (+ (* 1.0 x8) (- (/ x6 (* x2 x1))))))
(assert (<= 0.0 (+ (* 1.0 x8) (- (- (/ 10.0 x1)) (/ x7 (* x3 x1))))))
(assert (<= 0.0 (+ (* 1.0 x8) (- (- (/ 10.0 x1)) (/ 0.190000 (* x1 x4))))))
(assert (<= 0.0 (+ (* 1.0 x8) (- (/ 0.125000 (* x1 x5))))))
(assert (<= 0.0 (+ (* 10000.0 x9) (- (* (* (* 0.001310 x6) (^ x2 0.666000)) (^ x1 1.500000))))))
(assert (<= 0.0 (+ (* 10000.0 x9) (- (* (* (* 0.001038 x7) (^ x3 1.600000)) (^ x1 3.0))))))
(assert (<= 0.0 (+ (* 10000.0 x9) (- (* (* 0.000223 (^ x4 0.666000)) (^ x1 1.500000))))))
(assert (<= 0.0 (+ (* 10000.0 x9) (- (* (* 0.000076 (^ x5 3.550000)) (^ x1 5.660000))))))
(assert (<= 0.0 (+ (* 10000.0 x9) (- (* (* 0.000698 (^ x0 1.200000)) (^ x1 2.0))))))
(assert (<= 0.0 (+ (* 10000.0 x9) (- (* (* 0.000050 (^ x0 1.600000)) (^ x1 3.0))))))
(assert (<= 0.0 (+ (* 10000.0 x9) (- (* (* 0.000007 (^ x0 2.420000)) (^ x1 4.170000))))))
(assert (<= 0.0 (+ (* 10000.0 x9) (- (* (* 0.000257 (^ x0 0.666000)) (^ x1 1.500000))))))
(assert (<= (- 30.0) (- (+ (* (* 2.003000 x1) x2) (* (* 1.885000 x3) x1) (* (* 0.184000 x5) x1) (* (* 2.0 (^ x0 0.803000)) x1)))))
(assert (= (+ (* 1.0 x6) (* 1.0 x7)) 0.255000))

(minimize
	(/ (* (- 20000.0) (+ (- 0.060000) (+ (* 0.150000 x8) (* 14.0 x9)))) (+ 0.002000 x8 (* 60.0 x9)))
)
(check-sat)
(get-objectives)
(exit)

